Minimize
	value: tt

Subject to
tt + 1000 s_1_1 > 0.0
tt - t_1_1 - 1000.441742 s_1_1  + 0.441742 s_1_7  > -992.592125
tt + 1000 s_2_1 > 0.0
tt - t_2_1 - 1000.466326 s_2_1  + 0.466326 s_2_7  > -993.031661
tt + 1000 s_1_2 > 0.0
tt - t_1_2 - 1000.441742 s_1_2  + 0.441742 s_1_8  > -992.180989
tt + 1000 s_2_2 > 0.0
tt - t_2_2 - 1000.466326 s_2_2  + 0.466326 s_2_8  > -992.164465
tt + 1000 s_1_3 > 0.0
tt - t_1_3 - 1000.441742 s_1_3  + 0.441742 s_1_8  > -986.493178
tt + 1000 s_2_3 > 0.0
tt - t_2_3 - 1000.466326 s_2_3  + 0.466326 s_2_8  > -988.382017
tt + 1000 s_1_4 > 0.0
tt - t_1_4 - 1000.883483 s_1_4  + 0.441742 s_1_3  + 0.441742 s_1_8  > -993.194167
tt + 1000 s_2_4 > 0.0
tt - t_2_4 - 1000.932651 s_2_4  + 0.466326 s_2_3  + 0.466326 s_2_8  > -992.974867
tt + 1000 s_1_5 > 0.0
tt - t_1_5 - 1000.883483 s_1_5  + 0.441742 s_1_7  + 0.441742 s_1_8  > -993.486400
tt + 1000 s_2_5 > 0.0
tt - t_2_5 - 1000.932651 s_2_5  + 0.466326 s_2_7  + 0.466326 s_2_8  > -993.892272
tt + 1000 s_1_6 > 0.0
tt - t_1_6 - 1002.208708 s_1_6  + 0.441742 s_1_3  + 0.441742 s_1_2  + 0.441742 s_1_4  + 0.441742 s_1_1  + 0.441742 s_1_5  > -999.611700
tt + 1000 s_2_6 > 0.0
tt - t_2_6 - 1002.331628 s_2_6  + 0.466326 s_2_3  + 0.466326 s_2_2  + 0.466326 s_2_4  + 0.466326 s_2_1  + 0.466326 s_2_5  > -994.527800
tt + 1000 s_1_7 > 0.0
tt - t_1_7 - 1000.000000 s_1_7  > -986.561967
tt + 1000 s_2_7 > 0.0
tt - t_2_7 - 1000.000000 s_2_7  > -974.703211
tt + 1000 s_1_8 > 0.0
tt - t_1_8 - 1000.000000 s_1_8  > -980.035600
tt + 1000 s_2_8 > 0.0
tt - t_2_8 - 1000.000000 s_2_8  > -983.947457
s_1_1 + s_2_1 = 1
s_1_2 + s_2_2 = 1
s_1_3 + s_2_3 = 1
s_1_4 + s_2_4 = 1
s_1_5 + s_2_5 = 1
s_1_6 + s_2_6 = 1
s_1_7 + s_2_7 = 1
s_1_8 + s_2_8 = 1
s_1_1 + s_1_2 + 1000 r_1_1_2 >= 2
- s_1_1 - s_1_2 - 1000 r_1_1_2 >= -1001
t_1_1 - t_1_2 - 1000.000000 u_1_1_2 - 0.441742 s_1_2  + 0.441742 s_1_8  + 2000.000000 r_1_1_2 > -992.180989
s_2_1 + s_2_2 + 1000 r_2_1_2 >= 2
- s_2_1 - s_2_2 - 1000 r_2_1_2 >= -1001
t_2_1 - t_2_2 - 1000.000000 u_2_1_2 - 0.466326 s_2_2  + 0.466326 s_2_8  + 2000.000000 r_2_1_2 > -992.164465
s_1_1 + s_1_3 + 1000 r_1_1_3 >= 2
- s_1_1 - s_1_3 - 1000 r_1_1_3 >= -1001
t_1_1 - t_1_3 - 1000.000000 u_1_1_3 - 0.441742 s_1_3  + 0.441742 s_1_8  + 2000.000000 r_1_1_3 > -986.493178
s_2_1 + s_2_3 + 1000 r_2_1_3 >= 2
- s_2_1 - s_2_3 - 1000 r_2_1_3 >= -1001
t_2_1 - t_2_3 - 1000.000000 u_2_1_3 - 0.466326 s_2_3  + 0.466326 s_2_8  + 2000.000000 r_2_1_3 > -988.382017
s_1_1 + s_1_4 + 1000 r_1_1_4 >= 2
- s_1_1 - s_1_4 - 1000 r_1_1_4 >= -1001
t_1_1 - t_1_4 - 1000.000000 u_1_1_4 - 0.883483 s_1_4  + 0.441742 s_1_3  + 0.441742 s_1_8  + 2000.000000 r_1_1_4 > -993.194167
s_2_1 + s_2_4 + 1000 r_2_1_4 >= 2
- s_2_1 - s_2_4 - 1000 r_2_1_4 >= -1001
t_2_1 - t_2_4 - 1000.000000 u_2_1_4 - 0.932651 s_2_4  + 0.466326 s_2_3  + 0.466326 s_2_8  + 2000.000000 r_2_1_4 > -992.974867
s_1_1 + s_1_5 + 1000 r_1_1_5 >= 2
- s_1_1 - s_1_5 - 1000 r_1_1_5 >= -1001
t_1_1 - t_1_5 - 1000.000000 u_1_1_5 - 0.883483 s_1_5  + 0.441742 s_1_7  + 0.441742 s_1_8  + 2000.000000 r_1_1_5 > -993.486400
s_2_1 + s_2_5 + 1000 r_2_1_5 >= 2
- s_2_1 - s_2_5 - 1000 r_2_1_5 >= -1001
t_2_1 - t_2_5 - 1000.000000 u_2_1_5 - 0.932651 s_2_5  + 0.466326 s_2_7  + 0.466326 s_2_8  + 2000.000000 r_2_1_5 > -993.892272
t_1_6 - t_1_1 - 1000.441742 s_1_1  + 0.441742 s_1_7  > -992.592125
t_1_6 - t_2_1 - 1000.466326 s_2_1  + 0.466326 s_2_7  > -993.031661
t_2_6 - t_1_1 - 1000.441742 s_1_1  + 0.441742 s_1_7  > -992.592125
t_2_6 - t_2_1 - 1000.466326 s_2_1  + 0.466326 s_2_7  > -993.031661
t_1_1 - t_1_7 - 1000.000000 s_1_7  > -986.561967
t_1_1 - t_2_7 - 1000.000000 s_2_7  > -974.703211
t_2_1 - t_1_7 - 1000.000000 s_1_7  > -986.561967
t_2_1 - t_2_7 - 1000.000000 s_2_7  > -974.703211
s_1_1 + s_1_8 + 1000 r_1_1_8 >= 2
- s_1_1 - s_1_8 - 1000 r_1_1_8 >= -1001
t_1_1 - t_1_8 - 1000.000000 u_1_1_8 - 0.000000 s_1_8  + 2000.000000 r_1_1_8 > -980.035600
s_2_1 + s_2_8 + 1000 r_2_1_8 >= 2
- s_2_1 - s_2_8 - 1000 r_2_1_8 >= -1001
t_2_1 - t_2_8 - 1000.000000 u_2_1_8 - 0.000000 s_2_8  + 2000.000000 r_2_1_8 > -983.947457
s_1_2 + s_1_1 + 1000 r_1_1_2 >= 2
- s_1_2 - s_1_1 - 1000 r_1_1_2 >= -1001
t_1_2 - t_1_1 + 1000.000000 u_1_1_2 - 0.441742 s_1_1  + 0.441742 s_1_7  + 2000.000000 r_1_1_2 > 7.407875
s_2_2 + s_2_1 + 1000 r_2_1_2 >= 2
- s_2_2 - s_2_1 - 1000 r_2_1_2 >= -1001
t_2_2 - t_2_1 + 1000.000000 u_2_1_2 - 0.466326 s_2_1  + 0.466326 s_2_7  + 2000.000000 r_2_1_2 > 6.968339
s_1_2 + s_1_3 + 1000 r_1_2_3 >= 2
- s_1_2 - s_1_3 - 1000 r_1_2_3 >= -1001
t_1_2 - t_1_3 - 1000.000000 u_1_2_3 - 0.441742 s_1_3  + 0.441742 s_1_8  + 2000.000000 r_1_2_3 > -986.493178
s_2_2 + s_2_3 + 1000 r_2_2_3 >= 2
- s_2_2 - s_2_3 - 1000 r_2_2_3 >= -1001
t_2_2 - t_2_3 - 1000.000000 u_2_2_3 - 0.466326 s_2_3  + 0.466326 s_2_8  + 2000.000000 r_2_2_3 > -988.382017
s_1_2 + s_1_4 + 1000 r_1_2_4 >= 2
- s_1_2 - s_1_4 - 1000 r_1_2_4 >= -1001
t_1_2 - t_1_4 - 1000.000000 u_1_2_4 - 0.883483 s_1_4  + 0.441742 s_1_3  + 0.441742 s_1_8  + 2000.000000 r_1_2_4 > -993.194167
s_2_2 + s_2_4 + 1000 r_2_2_4 >= 2
- s_2_2 - s_2_4 - 1000 r_2_2_4 >= -1001
t_2_2 - t_2_4 - 1000.000000 u_2_2_4 - 0.932651 s_2_4  + 0.466326 s_2_3  + 0.466326 s_2_8  + 2000.000000 r_2_2_4 > -992.974867
s_1_2 + s_1_5 + 1000 r_1_2_5 >= 2
- s_1_2 - s_1_5 - 1000 r_1_2_5 >= -1001
t_1_2 - t_1_5 - 1000.000000 u_1_2_5 - 0.883483 s_1_5  + 0.441742 s_1_7  + 0.441742 s_1_8  + 2000.000000 r_1_2_5 > -993.486400
s_2_2 + s_2_5 + 1000 r_2_2_5 >= 2
- s_2_2 - s_2_5 - 1000 r_2_2_5 >= -1001
t_2_2 - t_2_5 - 1000.000000 u_2_2_5 - 0.932651 s_2_5  + 0.466326 s_2_7  + 0.466326 s_2_8  + 2000.000000 r_2_2_5 > -993.892272
t_1_6 - t_1_2 - 1000.441742 s_1_2  + 0.441742 s_1_8  > -992.180989
t_1_6 - t_2_2 - 1000.466326 s_2_2  + 0.466326 s_2_8  > -992.164465
t_2_6 - t_1_2 - 1000.441742 s_1_2  + 0.441742 s_1_8  > -992.180989
t_2_6 - t_2_2 - 1000.466326 s_2_2  + 0.466326 s_2_8  > -992.164465
s_1_2 + s_1_7 + 1000 r_1_2_7 >= 2
- s_1_2 - s_1_7 - 1000 r_1_2_7 >= -1001
t_1_2 - t_1_7 - 1000.000000 u_1_2_7 - 0.000000 s_1_7  + 2000.000000 r_1_2_7 > -986.561967
s_2_2 + s_2_7 + 1000 r_2_2_7 >= 2
- s_2_2 - s_2_7 - 1000 r_2_2_7 >= -1001
t_2_2 - t_2_7 - 1000.000000 u_2_2_7 - 0.000000 s_2_7  + 2000.000000 r_2_2_7 > -974.703211
t_1_2 - t_1_8 - 1000.000000 s_1_8  > -980.035600
t_1_2 - t_2_8 - 1000.000000 s_2_8  > -983.947457
t_2_2 - t_1_8 - 1000.000000 s_1_8  > -980.035600
t_2_2 - t_2_8 - 1000.000000 s_2_8  > -983.947457
s_1_3 + s_1_1 + 1000 r_1_1_3 >= 2
- s_1_3 - s_1_1 - 1000 r_1_1_3 >= -1001
t_1_3 - t_1_1 + 1000.000000 u_1_1_3 - 0.441742 s_1_1  + 0.441742 s_1_7  + 2000.000000 r_1_1_3 > 7.407875
s_2_3 + s_2_1 + 1000 r_2_1_3 >= 2
- s_2_3 - s_2_1 - 1000 r_2_1_3 >= -1001
t_2_3 - t_2_1 + 1000.000000 u_2_1_3 - 0.466326 s_2_1  + 0.466326 s_2_7  + 2000.000000 r_2_1_3 > 6.968339
s_1_3 + s_1_2 + 1000 r_1_2_3 >= 2
- s_1_3 - s_1_2 - 1000 r_1_2_3 >= -1001
t_1_3 - t_1_2 + 1000.000000 u_1_2_3 - 0.441742 s_1_2  + 0.441742 s_1_8  + 2000.000000 r_1_2_3 > 7.819011
s_2_3 + s_2_2 + 1000 r_2_2_3 >= 2
- s_2_3 - s_2_2 - 1000 r_2_2_3 >= -1001
t_2_3 - t_2_2 + 1000.000000 u_2_2_3 - 0.466326 s_2_2  + 0.466326 s_2_8  + 2000.000000 r_2_2_3 > 7.835535
t_1_4 - t_1_3 - 1000.441742 s_1_3  + 0.441742 s_1_8  > -986.493178
t_1_4 - t_2_3 - 1000.466326 s_2_3  + 0.466326 s_2_8  > -988.382017
t_2_4 - t_1_3 - 1000.441742 s_1_3  + 0.441742 s_1_8  > -986.493178
t_2_4 - t_2_3 - 1000.466326 s_2_3  + 0.466326 s_2_8  > -988.382017
s_1_3 + s_1_5 + 1000 r_1_3_5 >= 2
- s_1_3 - s_1_5 - 1000 r_1_3_5 >= -1001
t_1_3 - t_1_5 - 1000.000000 u_1_3_5 - 0.883483 s_1_5  + 0.441742 s_1_7  + 0.441742 s_1_8  + 2000.000000 r_1_3_5 > -993.486400
s_2_3 + s_2_5 + 1000 r_2_3_5 >= 2
- s_2_3 - s_2_5 - 1000 r_2_3_5 >= -1001
t_2_3 - t_2_5 - 1000.000000 u_2_3_5 - 0.932651 s_2_5  + 0.466326 s_2_7  + 0.466326 s_2_8  + 2000.000000 r_2_3_5 > -993.892272
t_1_6 - t_1_3 - 1000.441742 s_1_3  + 0.441742 s_1_8  > -986.493178
t_1_6 - t_2_3 - 1000.466326 s_2_3  + 0.466326 s_2_8  > -988.382017
t_2_6 - t_1_3 - 1000.441742 s_1_3  + 0.441742 s_1_8  > -986.493178
t_2_6 - t_2_3 - 1000.466326 s_2_3  + 0.466326 s_2_8  > -988.382017
s_1_3 + s_1_7 + 1000 r_1_3_7 >= 2
- s_1_3 - s_1_7 - 1000 r_1_3_7 >= -1001
t_1_3 - t_1_7 - 1000.000000 u_1_3_7 - 0.000000 s_1_7  + 2000.000000 r_1_3_7 > -986.561967
s_2_3 + s_2_7 + 1000 r_2_3_7 >= 2
- s_2_3 - s_2_7 - 1000 r_2_3_7 >= -1001
t_2_3 - t_2_7 - 1000.000000 u_2_3_7 - 0.000000 s_2_7  + 2000.000000 r_2_3_7 > -974.703211
t_1_3 - t_1_8 - 1000.000000 s_1_8  > -980.035600
t_1_3 - t_2_8 - 1000.000000 s_2_8  > -983.947457
t_2_3 - t_1_8 - 1000.000000 s_1_8  > -980.035600
t_2_3 - t_2_8 - 1000.000000 s_2_8  > -983.947457
s_1_4 + s_1_1 + 1000 r_1_1_4 >= 2
- s_1_4 - s_1_1 - 1000 r_1_1_4 >= -1001
t_1_4 - t_1_1 + 1000.000000 u_1_1_4 - 0.441742 s_1_1  + 0.441742 s_1_7  + 2000.000000 r_1_1_4 > 7.407875
s_2_4 + s_2_1 + 1000 r_2_1_4 >= 2
- s_2_4 - s_2_1 - 1000 r_2_1_4 >= -1001
t_2_4 - t_2_1 + 1000.000000 u_2_1_4 - 0.466326 s_2_1  + 0.466326 s_2_7  + 2000.000000 r_2_1_4 > 6.968339
s_1_4 + s_1_2 + 1000 r_1_2_4 >= 2
- s_1_4 - s_1_2 - 1000 r_1_2_4 >= -1001
t_1_4 - t_1_2 + 1000.000000 u_1_2_4 - 0.441742 s_1_2  + 0.441742 s_1_8  + 2000.000000 r_1_2_4 > 7.819011
s_2_4 + s_2_2 + 1000 r_2_2_4 >= 2
- s_2_4 - s_2_2 - 1000 r_2_2_4 >= -1001
t_2_4 - t_2_2 + 1000.000000 u_2_2_4 - 0.466326 s_2_2  + 0.466326 s_2_8  + 2000.000000 r_2_2_4 > 7.835535
s_1_4 + s_1_5 + 1000 r_1_4_5 >= 2
- s_1_4 - s_1_5 - 1000 r_1_4_5 >= -1001
t_1_4 - t_1_5 - 1000.000000 u_1_4_5 - 0.883483 s_1_5  + 0.441742 s_1_7  + 0.441742 s_1_8  + 2000.000000 r_1_4_5 > -993.486400
s_2_4 + s_2_5 + 1000 r_2_4_5 >= 2
- s_2_4 - s_2_5 - 1000 r_2_4_5 >= -1001
t_2_4 - t_2_5 - 1000.000000 u_2_4_5 - 0.932651 s_2_5  + 0.466326 s_2_7  + 0.466326 s_2_8  + 2000.000000 r_2_4_5 > -993.892272
t_1_6 - t_1_4 - 1000.883483 s_1_4  + 0.441742 s_1_3  + 0.441742 s_1_8  > -993.194167
t_1_6 - t_2_4 - 1000.932651 s_2_4  + 0.466326 s_2_3  + 0.466326 s_2_8  > -992.974867
t_2_6 - t_1_4 - 1000.883483 s_1_4  + 0.441742 s_1_3  + 0.441742 s_1_8  > -993.194167
t_2_6 - t_2_4 - 1000.932651 s_2_4  + 0.466326 s_2_3  + 0.466326 s_2_8  > -992.974867
s_1_4 + s_1_7 + 1000 r_1_4_7 >= 2
- s_1_4 - s_1_7 - 1000 r_1_4_7 >= -1001
t_1_4 - t_1_7 - 1000.000000 u_1_4_7 - 0.000000 s_1_7  + 2000.000000 r_1_4_7 > -986.561967
s_2_4 + s_2_7 + 1000 r_2_4_7 >= 2
- s_2_4 - s_2_7 - 1000 r_2_4_7 >= -1001
t_2_4 - t_2_7 - 1000.000000 u_2_4_7 - 0.000000 s_2_7  + 2000.000000 r_2_4_7 > -974.703211
t_1_4 - t_1_8 - 1000.000000 s_1_8  > -980.035600
t_1_4 - t_2_8 - 1000.000000 s_2_8  > -983.947457
t_2_4 - t_1_8 - 1000.000000 s_1_8  > -980.035600
t_2_4 - t_2_8 - 1000.000000 s_2_8  > -983.947457
s_1_5 + s_1_1 + 1000 r_1_1_5 >= 2
- s_1_5 - s_1_1 - 1000 r_1_1_5 >= -1001
t_1_5 - t_1_1 + 1000.000000 u_1_1_5 - 0.441742 s_1_1  + 0.441742 s_1_7  + 2000.000000 r_1_1_5 > 7.407875
s_2_5 + s_2_1 + 1000 r_2_1_5 >= 2
- s_2_5 - s_2_1 - 1000 r_2_1_5 >= -1001
t_2_5 - t_2_1 + 1000.000000 u_2_1_5 - 0.466326 s_2_1  + 0.466326 s_2_7  + 2000.000000 r_2_1_5 > 6.968339
s_1_5 + s_1_2 + 1000 r_1_2_5 >= 2
- s_1_5 - s_1_2 - 1000 r_1_2_5 >= -1001
t_1_5 - t_1_2 + 1000.000000 u_1_2_5 - 0.441742 s_1_2  + 0.441742 s_1_8  + 2000.000000 r_1_2_5 > 7.819011
s_2_5 + s_2_2 + 1000 r_2_2_5 >= 2
- s_2_5 - s_2_2 - 1000 r_2_2_5 >= -1001
t_2_5 - t_2_2 + 1000.000000 u_2_2_5 - 0.466326 s_2_2  + 0.466326 s_2_8  + 2000.000000 r_2_2_5 > 7.835535
s_1_5 + s_1_3 + 1000 r_1_3_5 >= 2
- s_1_5 - s_1_3 - 1000 r_1_3_5 >= -1001
t_1_5 - t_1_3 + 1000.000000 u_1_3_5 - 0.441742 s_1_3  + 0.441742 s_1_8  + 2000.000000 r_1_3_5 > 13.506822
s_2_5 + s_2_3 + 1000 r_2_3_5 >= 2
- s_2_5 - s_2_3 - 1000 r_2_3_5 >= -1001
t_2_5 - t_2_3 + 1000.000000 u_2_3_5 - 0.466326 s_2_3  + 0.466326 s_2_8  + 2000.000000 r_2_3_5 > 11.617983
s_1_5 + s_1_4 + 1000 r_1_4_5 >= 2
- s_1_5 - s_1_4 - 1000 r_1_4_5 >= -1001
t_1_5 - t_1_4 + 1000.000000 u_1_4_5 - 0.883483 s_1_4  + 0.441742 s_1_3  + 0.441742 s_1_8  + 2000.000000 r_1_4_5 > 6.805833
s_2_5 + s_2_4 + 1000 r_2_4_5 >= 2
- s_2_5 - s_2_4 - 1000 r_2_4_5 >= -1001
t_2_5 - t_2_4 + 1000.000000 u_2_4_5 - 0.932651 s_2_4  + 0.466326 s_2_3  + 0.466326 s_2_8  + 2000.000000 r_2_4_5 > 7.025133
t_1_6 - t_1_5 - 1000.883483 s_1_5  + 0.441742 s_1_7  + 0.441742 s_1_8  > -993.486400
t_1_6 - t_2_5 - 1000.932651 s_2_5  + 0.466326 s_2_7  + 0.466326 s_2_8  > -993.892272
t_2_6 - t_1_5 - 1000.883483 s_1_5  + 0.441742 s_1_7  + 0.441742 s_1_8  > -993.486400
t_2_6 - t_2_5 - 1000.932651 s_2_5  + 0.466326 s_2_7  + 0.466326 s_2_8  > -993.892272
t_1_5 - t_1_7 - 1000.000000 s_1_7  > -986.561967
t_1_5 - t_2_7 - 1000.000000 s_2_7  > -974.703211
t_2_5 - t_1_7 - 1000.000000 s_1_7  > -986.561967
t_2_5 - t_2_7 - 1000.000000 s_2_7  > -974.703211
t_1_5 - t_1_8 - 1000.000000 s_1_8  > -980.035600
t_1_5 - t_2_8 - 1000.000000 s_2_8  > -983.947457
t_2_5 - t_1_8 - 1000.000000 s_1_8  > -980.035600
t_2_5 - t_2_8 - 1000.000000 s_2_8  > -983.947457
s_1_7 + s_1_2 + 1000 r_1_2_7 >= 2
- s_1_7 - s_1_2 - 1000 r_1_2_7 >= -1001
t_1_7 - t_1_2 + 1000.000000 u_1_2_7 - 0.441742 s_1_2  + 0.441742 s_1_8  + 2000.000000 r_1_2_7 > 7.819011
s_2_7 + s_2_2 + 1000 r_2_2_7 >= 2
- s_2_7 - s_2_2 - 1000 r_2_2_7 >= -1001
t_2_7 - t_2_2 + 1000.000000 u_2_2_7 - 0.466326 s_2_2  + 0.466326 s_2_8  + 2000.000000 r_2_2_7 > 7.835535
s_1_7 + s_1_3 + 1000 r_1_3_7 >= 2
- s_1_7 - s_1_3 - 1000 r_1_3_7 >= -1001
t_1_7 - t_1_3 + 1000.000000 u_1_3_7 - 0.441742 s_1_3  + 0.441742 s_1_8  + 2000.000000 r_1_3_7 > 13.506822
s_2_7 + s_2_3 + 1000 r_2_3_7 >= 2
- s_2_7 - s_2_3 - 1000 r_2_3_7 >= -1001
t_2_7 - t_2_3 + 1000.000000 u_2_3_7 - 0.466326 s_2_3  + 0.466326 s_2_8  + 2000.000000 r_2_3_7 > 11.617983
s_1_7 + s_1_4 + 1000 r_1_4_7 >= 2
- s_1_7 - s_1_4 - 1000 r_1_4_7 >= -1001
t_1_7 - t_1_4 + 1000.000000 u_1_4_7 - 0.883483 s_1_4  + 0.441742 s_1_3  + 0.441742 s_1_8  + 2000.000000 r_1_4_7 > 6.805833
s_2_7 + s_2_4 + 1000 r_2_4_7 >= 2
- s_2_7 - s_2_4 - 1000 r_2_4_7 >= -1001
t_2_7 - t_2_4 + 1000.000000 u_2_4_7 - 0.932651 s_2_4  + 0.466326 s_2_3  + 0.466326 s_2_8  + 2000.000000 r_2_4_7 > 7.025133
s_1_7 + s_1_8 + 1000 r_1_7_8 >= 2
- s_1_7 - s_1_8 - 1000 r_1_7_8 >= -1001
t_1_7 - t_1_8 - 1000.000000 u_1_7_8 - 0.000000 s_1_8  + 2000.000000 r_1_7_8 > -980.035600
s_2_7 + s_2_8 + 1000 r_2_7_8 >= 2
- s_2_7 - s_2_8 - 1000 r_2_7_8 >= -1001
t_2_7 - t_2_8 - 1000.000000 u_2_7_8 - 0.000000 s_2_8  + 2000.000000 r_2_7_8 > -983.947457
s_1_8 + s_1_1 + 1000 r_1_1_8 >= 2
- s_1_8 - s_1_1 - 1000 r_1_1_8 >= -1001
t_1_8 - t_1_1 + 1000.000000 u_1_1_8 - 0.441742 s_1_1  + 0.441742 s_1_7  + 2000.000000 r_1_1_8 > 7.407875
s_2_8 + s_2_1 + 1000 r_2_1_8 >= 2
- s_2_8 - s_2_1 - 1000 r_2_1_8 >= -1001
t_2_8 - t_2_1 + 1000.000000 u_2_1_8 - 0.466326 s_2_1  + 0.466326 s_2_7  + 2000.000000 r_2_1_8 > 6.968339
s_1_8 + s_1_7 + 1000 r_1_7_8 >= 2
- s_1_8 - s_1_7 - 1000 r_1_7_8 >= -1001
t_1_8 - t_1_7 + 1000.000000 u_1_7_8 - 0.000000 s_1_7  + 2000.000000 r_1_7_8 > 13.438033
s_2_8 + s_2_7 + 1000 r_2_7_8 >= 2
- s_2_8 - s_2_7 - 1000 r_2_7_8 >= -1001
t_2_8 - t_2_7 + 1000.000000 u_2_7_8 - 0.000000 s_2_7  + 2000.000000 r_2_7_8 > 25.296789
Binary
s_1_1
s_2_1
s_1_2
s_2_2
s_1_3
s_2_3
s_1_4
s_2_4
s_1_5
s_2_5
s_1_6
s_2_6
s_1_7
s_2_7
s_1_8
s_2_8
u_1_1_2
r_1_1_2
u_2_1_2
r_2_1_2
u_1_1_3
r_1_1_3
u_2_1_3
r_2_1_3
u_1_1_4
r_1_1_4
u_2_1_4
r_2_1_4
u_1_1_5
r_1_1_5
u_2_1_5
r_2_1_5
u_1_1_8
r_1_1_8
u_2_1_8
r_2_1_8
u_1_2_3
r_1_2_3
u_2_2_3
r_2_2_3
u_1_2_4
r_1_2_4
u_2_2_4
r_2_2_4
u_1_2_5
r_1_2_5
u_2_2_5
r_2_2_5
u_1_2_7
r_1_2_7
u_2_2_7
r_2_2_7
u_1_3_5
r_1_3_5
u_2_3_5
r_2_3_5
u_1_3_7
r_1_3_7
u_2_3_7
r_2_3_7
u_1_4_5
r_1_4_5
u_2_4_5
r_2_4_5
u_1_4_7
r_1_4_7
u_2_4_7
r_2_4_7
u_1_7_8
r_1_7_8
u_2_7_8
r_2_7_8

End
